Version identifier: 12.10.0.0 | 2019-11-26 | 843d4de
CPXPARAM_WorkMem                                 28672
Tried aggregator 2 times.
MIP Presolve eliminated 22 rows and 0 columns.
MIP Presolve added 44 rows and 0 columns.
Aggregator did 60 substitutions.
Reduced MIP has 124 rows, 110 columns, and 510 nonzeros.
Reduced MIP has 110 binaries, 0 generals, 0 SOSs, and 0 indicators.
Presolve time = 0,00 sec. (1,13 ticks)
Found incumbent of value 1841,000000 after 0,00 sec. (1,29 ticks)
Probing fixed 7 vars, tightened 0 bounds.
Probing time = 0,00 sec. (0,89 ticks)
Tried aggregator 1 time.
Detecting symmetries...
MIP Presolve eliminated 7 rows and 7 columns.
Reduced MIP has 117 rows, 103 columns, and 469 nonzeros.
Reduced MIP has 103 binaries, 0 generals, 0 SOSs, and 0 indicators.
Presolve time = 0,00 sec. (0,43 ticks)
Probing time = 0,00 sec. (0,77 ticks)
Clique table members: 389.
MIP emphasis: balance optimality and feasibility.
MIP search method: dynamic search.
Parallel mode: deterministic, using up to 16 threads.
Root relaxation solution time = 0,00 sec. (0,20 ticks)

        Nodes                                         Cuts/
   Node  Left     Objective  IInf  Best Integer    Best Bound    ItCnt     Gap

*     0+    0                         1841,0000      245,0000            86,69%
      0     0     1104,5500    57     1841,0000     1104,5500       32   40,00%
*     0+    0                         1783,0000     1104,5500            38,05%
      0     0     1338,4037    57     1783,0000     Cuts: 129       84   24,94%
      0     0     1490,1444    57     1783,0000     Cuts: 129      167   16,42%
*     0+    0                         1765,0000     1490,1444            15,57%
      0     0     1505,4748    57     1765,0000      Cuts: 52      204   14,70%
      0     0     1508,8207    57     1765,0000      Cuts: 70      227   14,51%
      0     0     1512,2595    57     1765,0000      Cuts: 61      242   14,32%
Detecting symmetries...
      0     0     1514,8343    57     1765,0000      Cuts: 55      262   14,17%
      0     0     1517,2158    57     1765,0000      Cuts: 70      282   14,04%
      0     0     1519,3328    57     1765,0000      Cuts: 66      300   13,92%
      0     0     1522,4238    57     1765,0000      Cuts: 41      327   13,74%
      0     0     1524,1978    57     1765,0000      Cuts: 34      349   13,64%
      0     0     1526,8046    57     1765,0000      Cuts: 22      372   13,50%
      0     0     1528,5681    57     1765,0000      Cuts: 30      387   13,40%
      0     0     1530,3023    57     1765,0000      Cuts: 83      414   13,30%
      0     0     1531,9439    57     1765,0000      Cuts: 48      435   13,20%
      0     0     1532,9771    57     1765,0000      Cuts: 52      456   13,15%
      0     0     1534,6026    57     1765,0000      Cuts: 41      477   13,05%
*     0+    0                         1763,0000     1534,6026            12,96%
      0     0     1535,3650    57     1763,0000      Cuts: 42      490   12,91%
      0     0     1536,2088    57     1763,0000      Cuts: 42      516   12,86%
      0     0     1537,1716    57     1763,0000      Cuts: 36      547   12,81%
      0     0     1538,2893    57     1763,0000      Cuts: 28      566   12,75%
      0     0     1538,5923    57     1763,0000      Cuts: 76      576   12,73%
      0     0     1539,1839    57     1763,0000      Cuts: 32      594   12,70%
      0     0     1539,4787    57     1763,0000      Cuts: 41      615   12,68%
      0     0        cutoff           1763,0000     1763,0000      615    0,00%
Elapsed time = 0,10 sec. (67,24 ticks, tree = 0,01 MB, solutions = 4)

Clique cuts applied:  8
Cover cuts applied:  1
Implied bound cuts applied:  28
Flow cuts applied:  3
Mixed integer rounding cuts applied:  7
Zero-half cuts applied:  29
Gomory fractional cuts applied:  1

Root node processing (before b&c):
  Real time             =    0,10 sec. (67,26 ticks)
Parallel b&c, 16 threads:
  Real time             =    0,00 sec. (0,00 ticks)
  Sync time (average)   =    0,00 sec.
  Wait time (average)   =    0,00 sec.
                          ------------
Total (root+branch&cut) =    0,10 sec. (67,26 ticks)
